
Gurobi 9.5.2 (mac64[arm]) logging started Mon May  1 12:27:37 2023

Set parameter LogFile to value "Java/output/special_mip/scenario_seed_0_nJob_40_machineCount_2/mip_increment_5/log.txt"
Gurobi Optimizer version 9.5.2 build v9.5.2rc0 (mac64[arm])
Thread count: 8 physical cores, 8 logical processors, using up to 8 threads
Optimize a model with 754 rows, 11132 columns and 48866 nonzeros
Model fingerprint: 0xbd562a1d
Variable types: 0 continuous, 11132 integer (11132 binary)
Coefficient statistics:
  Matrix range     [1e+00, 2e+02]
  Objective range  [1e+00, 6e+06]
  Bounds range     [1e+00, 1e+00]
  RHS range        [1e+00, 1e+00]
Found heuristic solution: objective 2.051211e+07
Presolve removed 9 rows and 1386 columns
Presolve time: 0.06s
Presolved: 745 rows, 9746 columns, 41708 nonzeros
Found heuristic solution: objective 1.777028e+07
Variable types: 0 continuous, 9746 integer (9730 binary)
Found heuristic solution: objective 1.752936e+07

Root relaxation: objective 1.688295e+04, 4896 iterations, 0.21 seconds (0.41 work units)

    Nodes    |    Current Node    |     Objective Bounds      |     Work
 Expl Unexpl |  Obj  Depth IntInf | Incumbent    BestBd   Gap | It/Node Time

     0     0 16882.9450    0  265 1.7529e+07 16882.9450   100%     -    0s
H    0     0                    1.371218e+07 16882.9450   100%     -    0s
H    0     0                    1.263854e+07 16882.9450   100%     -    0s
H    0     0                    1.170223e+07 16882.9450   100%     -    0s
H    0     0                    1907354.0000 17019.4478  99.1%     -    0s
     0     0 17019.4478    0  359 1907354.00 17019.4478  99.1%     -    0s
H    0     0                    1748392.0000 17019.4478  99.0%     -    0s
H    0     0                    1748121.0000 17019.4478  99.0%     -    0s
H    0     0                    1707138.0000 17019.4478  99.0%     -    0s
     0     0 17020.6161    0  366 1707138.00 17020.6161  99.0%     -    0s
     0     0 17022.4462    0  360 1707138.00 17022.4462  99.0%     -    0s
     0     0 17022.4462    0  362 1707138.00 17022.4462  99.0%     -    0s
     0     0 17094.1758    0  414 1707138.00 17094.1758  99.0%     -    1s
H    0     0                    1706635.0000 17094.1758  99.0%     -    1s
H    0     0                    1428913.0000 17094.1758  98.8%     -    1s
     0     0 17104.1978    0  418 1428913.00 17104.1978  98.8%     -    1s
     0     0 17108.6459    0  415 1428913.00 17108.6459  98.8%     -    1s
     0     0 17108.8900    0  420 1428913.00 17108.8900  98.8%     -    1s
     0     0 17108.9303    0  421 1428913.00 17108.9303  98.8%     -    1s
H    0     0                    1074169.0000 17275.0634  98.4%     -    1s
H    0     0                    1038987.0000 17275.0634  98.3%     -    1s
     0     0 17275.0634    0  453 1038987.00 17275.0634  98.3%     -    1s
H    0     0                    1038644.0000 17275.0634  98.3%     -    2s
H    0     0                    1006602.0000 17292.6588  98.3%     -    2s
H    0     0                    988940.00000 17292.6588  98.3%     -    2s
     0     0 17292.6588    0  452 988940.000 17292.6588  98.3%     -    2s
     0     0 17293.6821    0  464 988940.000 17293.6821  98.3%     -    2s
     0     0 17294.8077    0  466 988940.000 17294.8077  98.3%     -    2s
     0     0 17294.8077    0  467 988940.000 17294.8077  98.3%     -    2s
     0     0 17358.4892    0  468 988940.000 17358.4892  98.2%     -    2s
H    0     0                    988856.00000 17358.4892  98.2%     -    2s
H    0     0                    986636.00000 17358.4892  98.2%     -    2s
     0     0 17364.8738    0  484 986636.000 17364.8738  98.2%     -    2s
     0     0 17366.0185    0  489 986636.000 17366.0185  98.2%     -    2s
H    0     0                    973655.00000 17366.0284  98.2%     -    2s
     0     0 17366.0284    0  488 973655.000 17366.0284  98.2%     -    2s
     0     0 17413.6814    0  510 973655.000 17413.6814  98.2%     -    2s
H    0     0                    973651.00000 17413.6814  98.2%     -    2s
H    0     0                    973402.00000 17413.6814  98.2%     -    2s
     0     0 17431.2202    0  494 973402.000 17431.2202  98.2%     -    3s
     0     0 17434.0985    0  494 973402.000 17434.0985  98.2%     -    3s
     0     0 17435.5420    0  504 973402.000 17435.5420  98.2%     -    3s
     0     0 17436.6250    0  511 973402.000 17436.6250  98.2%     -    3s
     0     0 17436.7092    0  521 973402.000 17436.7092  98.2%     -    3s
H    0     0                    880005.00000 17477.7415  98.0%     -    3s
H    0     0                    794769.00000 17477.7415  97.8%     -    3s
     0     0 17477.7415    0  504 794769.000 17477.7415  97.8%     -    3s
H    0     0                    794689.00000 17477.7415  97.8%     -    3s
H    0     0                    794173.00000 17477.7415  97.8%     -    3s
H    0     0                    761921.00000 17477.7415  97.7%     -    3s
     0     0 17483.8520    0  516 761921.000 17483.8520  97.7%     -    3s
     0     0 17486.6120    0  515 761921.000 17486.6120  97.7%     -    3s
     0     0 17486.7201    0  523 761921.000 17486.7201  97.7%     -    3s
     0     0 17502.6679    0  546 761921.000 17502.6679  97.7%     -    3s
H    0     0                    756831.00000 17502.6679  97.7%     -    3s
     0     0 17503.5214    0  535 756831.000 17503.5214  97.7%     -    3s
H    0     0                    237121.00000 17505.2670  92.6%     -    3s
     0     0 17505.2670    0  543 237121.000 17505.2670  92.6%     -    3s
     0     0 17505.4427    0  542 237121.000 17505.4427  92.6%     -    3s
     0     0 17551.7382    0  510 237121.000 17551.7382  92.6%     -    3s
H    0     0                    237117.00000 17551.7382  92.6%     -    3s
H    0     0                    230596.00000 17551.7382  92.4%     -    3s
     0     0 17554.0933    0  525 230596.000 17554.0933  92.4%     -    3s
     0     0 17554.1984    0  533 230596.000 17554.1984  92.4%     -    3s
     0     0 17571.5565    0  523 230596.000 17571.5565  92.4%     -    4s
     0     0 17575.0520    0  526 230596.000 17575.0520  92.4%     -    4s
H    0     0                    224930.00000 17577.7376  92.2%     -    4s
     0     0 17577.7376    0  554 224930.000 17577.7376  92.2%     -    4s
     0     0 17577.8459    0  548 224930.000 17577.8459  92.2%     -    4s
     0     0 17583.9538    0  531 224930.000 17583.9538  92.2%     -    4s
H    0     0                    222426.00000 17583.9538  92.1%     -    4s
     0     0 17584.4058    0  531 222426.000 17584.4058  92.1%     -    4s
     0     0 17596.8832    0  521 222426.000 17596.8832  92.1%     -    4s
     0     0 17599.4447    0  530 222426.000 17599.4447  92.1%     -    4s
     0     0 17600.6239    0  532 222426.000 17600.6239  92.1%     -    4s
     0     0 17600.6349    0  528 222426.000 17600.6349  92.1%     -    4s
H    0     0                    212251.00000 17615.3685  91.7%     -    4s
     0     0 17615.3685    0  525 212251.000 17615.3685  91.7%     -    4s
     0     0 17618.2794    0  550 212251.000 17618.2794  91.7%     -    4s
     0     0 17618.9123    0  539 212251.000 17618.9123  91.7%     -    4s
     0     0 17623.8784    0  549 212251.000 17623.8784  91.7%     -    4s
H    0     0                    174316.00000 17626.1721  89.9%     -    4s
     0     0 17626.1721    0  528 174316.000 17626.1721  89.9%     -    4s
     0     0 17627.1131    0  522 174316.000 17627.1131  89.9%     -    4s
     0     0 17627.2579    0  537 174316.000 17627.2579  89.9%     -    4s
     0     0 17627.9865    0  547 174316.000 17627.9865  89.9%     -    4s
     0     0 17627.9865    0  539 174316.000 17627.9865  89.9%     -    5s
     0     0 17628.3900    0  283 174316.000 17628.3900  89.9%     -    5s
H    0     0                    174315.00000 17628.3900  89.9%     -    5s
     0     0 17628.3900    0  402 174315.000 17628.3900  89.9%     -    6s
     0     0 17628.3900    0  428 174315.000 17628.3900  89.9%     -    6s
     0     0 17628.3900    0  485 174315.000 17628.3900  89.9%     -    6s
     0     0 17628.3900    0  507 174315.000 17628.3900  89.9%     -    6s
     0     0 17633.2434    0  513 174315.000 17633.2434  89.9%     -    7s
     0     0 17637.8016    0  512 174315.000 17637.8016  89.9%     -    7s
     0     0 17638.3226    0  519 174315.000 17638.3226  89.9%     -    7s
     0     0 17638.5516    0  528 174315.000 17638.5516  89.9%     -    7s
     0     0 17638.5827    0  529 174315.000 17638.5827  89.9%     -    7s
     0     0 17664.5083    0  527 174315.000 17664.5083  89.9%     -    7s
     0     0 17667.0782    0  513 174315.000 17667.0782  89.9%     -    7s
     0     0 17667.2769    0  518 174315.000 17667.2769  89.9%     -    7s
     0     0 17675.2589    0  508 174315.000 17675.2589  89.9%     -    7s
     0     0 17677.1294    0  521 174315.000 17677.1294  89.9%     -    8s
     0     0 17677.1401    0  526 174315.000 17677.1401  89.9%     -    8s
     0     0 17685.0988    0  519 174315.000 17685.0988  89.9%     -    8s
     0     0 17685.7778    0  521 174315.000 17685.7778  89.9%     -    8s
     0     0 17688.9799    0  531 174315.000 17688.9799  89.9%     -    8s
     0     0 17688.9799    0  531 174315.000 17688.9799  89.9%     -    8s
     0     2 17690.0644    0  528 174315.000 17690.0644  89.9%     -    9s
H   31    40                    162242.00000 17709.2264  89.1%   670   11s
H   33    40                    155442.00000 17709.4769  88.6%   676   11s
H   34    40                    19038.000000 17709.4769  6.98%   677   11s
H   68    80                    18917.000000 17723.9759  6.31%   636   12s
H  105   117                    18912.000000 17723.9759  6.28%   598   12s
H  115   117                    18893.000000 17723.9759  6.19%   594   12s
H  149   164                    18872.999996 17723.9759  6.09%   551   13s
H  159   164                    18868.000000 17723.9759  6.06%   547   13s
H  213   225                    18853.000000 17723.9759  5.99%   543   14s
H  218   225                    18738.000000 17723.9759  5.41%   537   14s
   224   249 17857.5098   25  403 18738.0000 17723.9759  5.41%   532   15s
H  698   684                    18737.000000 17723.9759  5.41%   427   18s
H 1194   865                    18275.000000 17725.2359  3.01%   351   19s
  1285   777 18037.7844   21  539 18275.0000 17725.2359  3.01%   335   20s
H 1287   739                    18254.000000 17725.2359  2.90%   334   21s
H 1296   707                    18211.000000 17725.2359  2.67%   332   21s
  1358   749 18182.3333   73  516 18211.0000 17776.5779  2.39%   317   25s
H 1426   753                    18112.000000 17792.4292  1.76%   347   29s
  1435   758 17881.7834   20  368 18112.0000 17792.4292  1.76%   348   30s
H 1464   733                    18085.000000 17792.4292  1.62%   350   30s
H 1465   698                    17989.000000 17792.4292  1.09%   350   30s
* 1962   603              31    17985.000000 17844.2480  0.78%   342   33s
  2029   591 17954.1674   20  376 17985.0000 17866.0266  0.66%   343   35s
H 2032   558                    17979.000000 17866.0266  0.63%   344   35s
H 2033   528                    17960.000000 17866.0266  0.52%   344   35s

Cutting planes:
  Gomory: 6
  Cover: 8
  Clique: 64
  MIR: 186
  StrongCG: 35
  Flow cover: 103
  GUB cover: 121
  Zero half: 31
  Mod-K: 1
  RLT: 10
  Relax-and-lift: 5

Explored 2584 nodes (884584 simplex iterations) in 37.27 seconds (80.22 work units)
Thread count was 8 (of 8 available processors)

Solution count 10: 17960 17979 17985 ... 18737

Optimal solution found (tolerance 1.00e-04)
Best objective 1.796000000000e+04, best bound 1.796000000000e+04, gap 0.0000%
